4 5
246 180 199 292 
0 83 73 101 91 20 10 38 28 100 31 59 82 36 66 10 3 95 75 17 58 4
1 37 27 14 4 98 88 75 65 95 31 81 63 69 57 20 49 25 40 31 26 2
2 91 81 26 16 68 58 103 93 89 4 42 58 53 33 53 37 80 49 89 31 4
3 62 52 78 68 87 77 103 93 13 15 66 84 93 27 94 49 94 81 72 23 2
4 85 75 56 46 26 16 97 87 36 25 17 85 3 13 59 36 71 7 9 78 2
